NAME: tsp35_22
COMMENT: 35-tsp problem (Padberg/Rinaldi)
TYPE: TSP
DIMENSION: 35
EDGE_WEIGHT_TYPE : EUC_2D
NODE_COORD_SECTION
1 13 0
2 20 14
3 8 9
4 23 24
5 22 36
6 24 34
7 16 14
8 6 20
9 27 19
10 27 8
11 15 6
12 21 26
13 23 23
14 35 37
15 38 4
16 40 3
17 15 39
18 17 14
19 1 38
20 14 16
21 3 22
22 37 1
23 3 4
24 28 29
25 0 17
26 25 37
27 14 4
28 7 5
29 26 3
30 3 5
31 2 3
32 31 29
33 25 37
34 7 36
35 36 32
